n_res = 4;
rc = [ 12, 10, 10, 12 ];
n_tasks = 30;
d = [ 10, 1, 9, 3, 1, 7, 1, 4, 10, 6, 2, 3, 1, 3, 1, 3, 10, 1, 3, 4, 2, 4, 2, 4, 6, 9, 2, 1, 1, 9 ];
rr = [| 0, 0, 4, 6, 3, 0, 0, 10, 0, 0, 0, 0, 0, 0, 0, 0, 0, 0, 5, 0, 8, 1, 3, 0, 0, 0, 0, 0, 0, 0
      | 0, 0, 0, 0, 0, 4, 0, 0, 0, 0, 0, 7, 0, 0, 0, 0, 0, 6, 0, 3, 0, 0, 0, 9, 0, 0, 0, 0, 0, 0
      | 0, 0, 0, 0, 0, 0, 0, 0, 0, 10, 0, 0, 3, 0, 10, 0, 0, 0, 0, 0, 0, 0, 0, 0, 0, 0, 0, 9, 9, 4
      | 4, 10, 0, 0, 0, 0, 2, 0, 2, 0, 6, 0, 0, 6, 0, 7, 9, 0, 0, 0, 0, 0, 0, 0, 7, 7, 5, 0, 0, 0 |];
suc = [ { 2 }, 
        { 3 }, 
        { 4 }, 
        { 5 }, 
        { 6 }, 
        { 7 }, 
        { 8 }, 
        { 9 }, 
        { 10 }, 
        { 11 }, 
        { 12 }, 
        { 13 }, 
        { 14 }, 
        { 15 }, 
        { 16 }, 
        { 17 }, 
        { 18 }, 
        { 19 }, 
        { 20 }, 
        { 21 }, 
        { 22 }, 
        { 23 }, 
        { 24 }, 
        { 25 }, 
        { 26 }, 
        { 27 }, 
        { 28 }, 
        { 29 }, 
        { 30 }, 
        {  }]; 
